results_rootrelaxation/bin012_090_038.srr.sol
solution status: optimal solution found
objective value:                                   29
_var688_                                            1 	(obj:2)
_var749_                                            1 	(obj:3)
_var790_                                            1 	(obj:1)
_var808_                                            1 	(obj:2)
_var828_                                            1 	(obj:2)
_var881_                                            1 	(obj:2)
_var929_                                            1 	(obj:2)
_var939_                                            1 	(obj:5)
_var971_                                            1 	(obj:3)
_var974_                                            1 	(obj:4)
_var978_                                            1 	(obj:3)
